\* Problem: Unknown *\

Maximize
 obj: + xp_0_0 + xp_0_1 + xp_1_0 + xp_2_0 + xp_2_1 + xp_2_2 + xp_3_0
 + xp_3_1 + xp_4_0 + xp_5_0 + xp_6_0 + xp_6_1 + xp_7_0 + xp_8_0 + xp_9_0
 + xp_10_0 + xp_10_1 + xp_11_0 + xp_12_0 + xp_12_1 + xp_13_0 + xp_14_0
 + xp_15_0 + xp_15_1 + xp_16_0 + xp_17_0 + xp_17_1 + xp_17_2 + xp_18_0
 + xp_18_1 + xp_19_0 + xp_20_0 + xp_21_0 + xp_21_1 + xp_21_2 + xp_21_3
 + xp_22_0 + xp_22_1 + xp_22_2 + xp_22_3 + xp_23_0 + xp_24_0 + xp_24_1
 + xp_25_0 + xp_26_0 + xp_27_0 + xp_28_0 + xp_29_0 + xp_30_0 + xp_31_0
 + xp_31_1 + xp_32_0 + xp_33_0 + xp_34_0 + xp_35_0 + xp_36_0 + xp_37_0
 + xp_38_0 + xp_39_0 + xp_40_0 + xp_40_1 + xp_41_0 + xp_42_0 + xp_42_1
 + xp_42_2 + xp_43_0 + xp_44_0 + xp_44_1 + xp_45_0 + xp_46_0 + xp_47_0
 + xp_48_0 + xp_48_1 + xp_49_0 + xp_50_0 + xp_51_0 + xp_52_0 + xp_52_1
 + xp_53_0 + xp_54_0 + xp_55_0 + xp_56_0 + xp_57_0 + xp_58_0 + xp_58_1
 + xp_59_0 + xp_60_0 + xp_60_1 + xp_61_0 + xp_61_1 + xp_62_0 + xp_63_0
 + xp_64_0 + xp_65_0

Subject To
 r_1: + xp_60_1 + xp_53_0 + xp_51_0 + xp_42_1 + xp_40_0 + xp_35_0
 + xp_33_0 <= 153.637538779731
 r_2: + xp_58_1 + xp_24_1 + xp_15_1 <= 155
 r_3: + xp_56_0 + xp_21_0 + xp_12_0 <= 152.393669634026
 r_4: + xp_65_0 + xp_50_0 + xp_45_0 + xp_24_0 + xp_15_0 + xp_10_0
 + xp_5_0 + xp_2_2 + xp_2_1 <= 142.043638598648
 r_5: + xp_38_0 + xp_31_1 + xp_17_0 + xp_14_0 <= 142.043638598648
 r_6: + xp_52_1 + xp_22_3 + xp_22_2 + xp_22_0 + xp_21_2 + xp_21_1
 + xp_17_1 + xp_13_0 + xp_12_1 + xp_3_0 + xp_2_0 <= 146.733333333333
 r_7: + xp_48_1 + xp_46_0 + xp_42_2 + xp_42_0 + xp_40_1 + xp_0_0
 <= 153.637538779731
 r_8: 0 xp_0_0 <= 150.204731574158
 r_9: + xp_64_0 + xp_25_0 + xp_24_1 + xp_21_0 + xp_6_0
 <= 153.637538779731
 r_10: + xp_63_0 <= 151.25355450237
 r_11: + xp_61_1 + xp_60_0 + xp_31_0 <= 155
 r_12: + xp_62_0 + xp_61_0 + xp_60_1 + xp_22_1 + xp_21_3 + xp_10_1
 + xp_3_1 <= 146.733333333333
 r_13: + xp_64_0 + xp_59_0 + xp_58_1 + xp_56_0 + xp_29_0 + xp_24_1
 + xp_21_0 + xp_20_0 + xp_15_1 + xp_12_0 <= 153.637538779731
 r_14: + xp_60_1 + xp_57_0 + xp_53_0 + xp_42_2 + xp_42_1 + xp_35_0
 + xp_18_0 <= 153.637538779731
 r_15: + xp_58_0 <= 153.637538779731
 r_16: + xp_65_0 + xp_55_0 + xp_53_0 + xp_51_0 + xp_50_0 + xp_44_1
 + xp_10_0 <= 155
 r_17: + xp_58_1 + xp_54_0 + xp_52_1 + xp_36_0 + xp_31_1
 <= 142.043638598648
 r_18: + xp_52_0 + xp_2_2 + xp_2_1 <= 152.393669634026
 r_19: + xp_60_0 + xp_48_0 <= 150.204731574158
 r_20: + xp_61_1 + xp_50_0 + xp_49_0 + xp_48_1 + xp_46_0 + xp_45_0
 + xp_22_2 + xp_21_1 + xp_2_2 <= 142.043638598648
 r_21: + xp_47_0 + xp_26_0 + xp_22_1 + xp_21_3 + xp_17_2 + xp_17_0
 + xp_10_1 + xp_7_0 + xp_3_1 <= 155
 r_22: + xp_61_0 + xp_43_0 + xp_42_2 + xp_42_0 + xp_40_1 + xp_38_0
 <= 146.733333333333
 r_23: + xp_56_0 + xp_52_1 + xp_52_0 + xp_41_0 + xp_34_0 + xp_31_0
 + xp_17_1 <= 146.733333333333
 r_24: + xp_62_0 + xp_60_1 + xp_44_1 + xp_44_0 + xp_42_1 + xp_40_0
 + xp_39_0 + xp_21_3 + xp_21_2 + xp_21_1 + xp_12_1 + xp_10_1 + xp_2_0
 <= 152.393669634026
 r_25: + xp_62_0 + xp_60_1 + xp_44_0 + xp_42_1 + xp_40_0 + xp_37_0
 + xp_35_0 + xp_33_0 + xp_10_1 <= 152.393669634026
 r_26: + xp_44_1 + xp_39_0 + xp_36_0 + xp_32_0 + xp_31_1
 <= 152.393669634026
 r_27: + xp_56_0 + xp_52_0 + xp_34_0 + xp_31_0 + xp_30_0
 <= 152.393669634026
 r_28: + xp_60_0 + xp_48_1 + xp_48_0 + xp_42_0 + xp_27_0 + xp_25_0
 + xp_24_1 + xp_21_0 + xp_18_1 + xp_8_0 + xp_6_0 <= 151.25355450237
 r_29: + xp_29_0 + xp_28_0 + xp_22_0 + xp_6_1 + xp_0_1
 <= 153.637538779731
 r_30: + xp_63_0 + xp_26_0 + xp_24_0 + xp_23_0 + xp_22_3 + xp_22_2
 + xp_22_1 + xp_21_3 + xp_21_2 + xp_21_1 + xp_17_2 <= 150.204731574158
 r_31: + xp_58_0 + xp_28_0 + xp_22_0 + xp_19_0 + xp_17_1 + xp_17_0
 + xp_15_0 + xp_14_0 + xp_13_0 + xp_12_1 <= 153.637538779731
 r_32: + xp_46_0 + xp_42_2 + xp_40_1 + xp_29_0 + xp_20_0 + xp_18_0
 + xp_16_0 + xp_15_1 + xp_12_0 + xp_6_1 <= 153.637538779731
 r_33: + xp_48_1 + xp_42_0 + xp_18_1 + xp_17_2 + xp_11_0
 <= 153.637538779731
 r_34: + xp_26_0 + xp_23_0 + xp_22_2 + xp_22_1 + xp_21_3 + xp_21_1
 + xp_17_2 + xp_10_1 + xp_7_0 + xp_4_0 + xp_3_1 + xp_2_2
 <= 150.204731574158
 r_35: + xp_60_0 + xp_48_0 + xp_8_0 + xp_6_1 + xp_6_0 + xp_1_0 + xp_0_1
 <= 150.204731574158
 r_36: + xp_63_0 + xp_24_0 + xp_22_3 + xp_21_2 + xp_10_0 + xp_9_0
 + xp_5_0 + xp_3_0 + xp_2_1 + xp_2_0 + xp_0_0 <= 150.204731574158

Bounds
 0 <= xp_0_0 <= 13.5204652203087
 0 <= xp_0_1 <= 13.5204652203087
 0 <= xp_1_0 <= 21.9100872288079
 0 <= xp_2_0 <= 6.03220755983002
 0 <= xp_2_1 <= 12.06441511966
 0 <= xp_2_2 <= 6.03220755983002
 0 <= xp_3_0 <= 10.5043614403936
 0 <= xp_3_1 <= 3.50145381346455
 0 <= xp_4_0 <= 27.4569447550883
 0 <= xp_5_0 <= 21.9100872288079
 0 <= xp_6_0 <= 6.30955043614404
 0 <= xp_6_1 <= 18.9286513084321
 0 <= xp_7_0 <= 21.3554014761798
 0 <= xp_8_0 <= 24.2675016774771
 0 <= xp_9_0 <= 16.9179154551554
 0 <= xp_10_0 <= 11.8564079624245
 0 <= xp_10_1 <= 3.95213598747484
 0 <= xp_11_0 <= 24.8221874301051
 0 <= xp_12_0 <= 8.11227913218519
 0 <= xp_12_1 <= 8.11227913218519
 0 <= xp_13_0 <= 14.5605010064862
 0 <= xp_14_0 <= 22.0487586669649
 0 <= xp_15_0 <= 13.7284723775442
 0 <= xp_15_1 <= 13.7284723775442
 0 <= xp_16_0 <= 26.2089018116752
 0 <= xp_17_0 <= 11.509729367032
 0 <= xp_17_1 <= 5.75486468351599
 0 <= xp_17_2 <= 5.75486468351599
 0 <= xp_18_0 <= 4.92283605457392
 0 <= xp_18_1 <= 14.7685081637218
 0 <= xp_19_0 <= 18.9979870275106
 0 <= xp_20_0 <= 22.6034444195929
 0 <= xp_21_0 <= 4.54148959964214
 0 <= xp_21_1 <= 4.54148959964214
 0 <= xp_21_2 <= 4.54148959964214
 0 <= xp_21_3 <= 4.54148959964214
 0 <= xp_22_0 <= 5.51218966674122
 0 <= xp_22_1 <= 5.51218966674122
 0 <= xp_22_2 <= 5.51218966674122
 0 <= xp_22_3 <= 5.51218966674122
 0 <= xp_23_0 <= 22.7421158577499
 0 <= xp_24_0 <= 8.87497204204876
 0 <= xp_24_1 <= 8.87497204204876
 0 <= xp_25_0 <= 27.0409304406173
 0 <= xp_26_0 <= 18.0272869604115
 0 <= xp_27_0 <= 14.5605010064862
 0 <= xp_28_0 <= 23.990158801163
 0 <= xp_29_0 <= 21.7714157906509
 0 <= xp_30_0 <= 26.9022590024603
 0 <= xp_31_0 <= 4.33348244240662
 0 <= xp_31_1 <= 13.0004473272199
 0 <= xp_32_0 <= 15.2538581972713
 0 <= xp_33_0 <= 18.3046298367256
 0 <= xp_34_0 <= 22.0487586669649
 0 <= xp_35_0 <= 15.1151867591143
 0 <= xp_36_0 <= 17.4726012077835
 0 <= xp_37_0 <= 13.8671438157012
 0 <= xp_38_0 <= 17.1952583314695
 0 <= xp_39_0 <= 14.6991724446433
 0 <= xp_40_0 <= 14.1444866920152
 0 <= xp_40_1 <= 4.7148288973384
 0 <= xp_41_0 <= 19.9686870946097
 0 <= xp_42_0 <= 11.648400805189
 0 <= xp_42_1 <= 5.8242004025945
 0 <= xp_42_2 <= 5.8242004025945
 0 <= xp_43_0 <= 16.5019011406844
 0 <= xp_44_0 <= 13.2084544844554
 0 <= xp_44_1 <= 4.40281816148513
 0 <= xp_45_0 <= 14.5605010064862
 0 <= xp_46_0 <= 20.3847014090807
 0 <= xp_47_0 <= 19.4140013419817
 0 <= xp_48_0 <= 20.5927085663163
 0 <= xp_48_1 <= 6.86423618877209
 0 <= xp_49_0 <= 14.4218295683292
 0 <= xp_50_0 <= 15.6698725117423
 0 <= xp_51_0 <= 23.435473048535
 0 <= xp_52_0 <= 19.4486692015209
 0 <= xp_52_1 <= 6.4828897338403
 0 <= xp_53_0 <= 27.1796018787743
 0 <= xp_54_0 <= 26.7635875643033
 0 <= xp_55_0 <= 20.9393871617088
 0 <= xp_56_0 <= 14.6991724446433
 0 <= xp_57_0 <= 17.3339297696265
 0 <= xp_58_0 <= 20.1766942518452
 0 <= xp_58_1 <= 6.72556475061507
 0 <= xp_59_0 <= 26.9022590024603
 0 <= xp_60_0 <= 8.52829344665623
 0 <= xp_60_1 <= 8.52829344665623
 0 <= xp_61_0 <= 18.8246477298144
 0 <= xp_61_1 <= 6.27488257660479
 0 <= xp_62_0 <= 26.7635875643033
 0 <= xp_63_0 <= 25.0995303064191
 0 <= xp_64_0 <= 27.0409304406173
 0 <= xp_65_0 <= 19.5526727801387

End
